proyfinal/src/viki/013/experimentInOfficeAgust.take6.output/f4481d5b-ce0c-42a6-abc7-c2e6591d9492.als.dat
{'cnf.clauses': '118081',
 'cnf.totvars': '69608',
 'conflict literals': '149',
 'conflicts': '46',
 'decisions': '8677',
 'memused.mb': '15.32',
 'outcome': 'UNSAT',
 'propagations': '37527',
 'restarts': '1',
 'solver.msecs': 36,
 'task.msecs': 91}
