proyfinal/src/viki/013/experimentInOfficeAgust.take6.output/f4481d5b-ce0c-42a6-abc7-c2e6591d9492.als.out
Reading from standard input... Use '--help' for help.
============================[ Problem Statistics ]=============================
|                                                                             |
|  Number of variables:         69608                                         |
|  Number of clauses:          118081                                         |
|  Parse time:                   0.03 s                                       |
|                                                                             |
============================[ Search Statistics ]==============================
| Conflicts |          ORIGINAL         |          LEARNT          | Progress |
|           |    Vars  Clauses Literals |    Limit  Clauses Lit/Cl |          |
===============================================================================
===============================================================================
restarts              : 1
conflicts             : 46             (1256 /sec)
decisions             : 8677           (0.00 % random) (236882 /sec)
propagations          : 37527          (1024488 /sec)
conflict literals     : 149            (1.32 % deleted)
Memory used           : 15.32 MB
CPU time              : 0.03663 s

UNSATISFIABLE
